Version identifier: 22.1.0.0 | 2022-03-09 | 1a383f8ce
CPXPARAM_Threads                                 1
CPXPARAM_MIP_Strategy_VariableSelect             3
CPXPARAM_TimeLimit                               599.99997390600004
1 of 1 MIP starts provided solutions.
MIP start 'm1' defined initial solution with objective 18.0000.
Tried aggregator 1 time.
MIP Presolve eliminated 42 rows and 0 columns.
MIP Presolve modified 248 coefficients.
Reduced MIP has 3284 rows, 7800 columns, and 179890 nonzeros.
Reduced MIP has 7800 binaries, 0 generals, 0 SOSs, and 0 indicators.
Presolve time = 0.19 sec. (297.69 ticks)
Probing time = 0.03 sec. (31.54 ticks)
Tried aggregator 1 time.
Detecting symmetries...
MIP Presolve modified 13 coefficients.
Reduced MIP has 3284 rows, 7800 columns, and 180264 nonzeros.
Reduced MIP has 7800 binaries, 0 generals, 0 SOSs, and 0 indicators.
Presolve time = 0.15 sec. (211.46 ticks)
Probing time = 0.03 sec. (31.56 ticks)
Clique table members: 951.
MIP emphasis: balance optimality and feasibility.
MIP search method: dynamic search.
Parallel mode: none, using 1 thread.
Root relaxation solution time = 0.60 sec. (703.67 ticks)

        Nodes                                         Cuts/
   Node  Left     Objective  IInf  Best Integer    Best Bound    ItCnt     Gap

*     0+    0                           18.0000    45150.0000              --- 
      0     0      300.0000   462       18.0000      300.0000     2531     --- 
*     0+    0                          300.0000      300.0000             0.00%
      0     0        cutoff            300.0000      300.0000     2531    0.00%
Elapsed time = 2.34 sec. (2616.98 ticks, tree = 0.01 MB, solutions = 2)

Root node processing (before b&c):
  Real time             =    2.35 sec. (2617.86 ticks)
Sequential b&c:
  Real time             =    0.00 sec. (0.00 ticks)
                          ------------
Total (root+branch&cut) =    2.35 sec. (2617.86 ticks)
Primal:	300
Dual:	300
Status:	Optimal
Time:	2.37
Sequence:
	23
	16
	20
	14
	2
	24
	7
	0
	20
	16
	22
	16
	4
	19
	13
	0
	20
	2
	2
	4
	13
	0
	4
	0
	23
	10
	23
	21
	4
	2
	11
	4
	21
	0
	21
	4
	0
	23
	10
	2
	10
	4
	13
	8
	7
	4
	7
	8
	22
	15
	19
	23
	8
	4
	18
	23
	2
	20
	17
	2
	13
	15
	7
	19
	11
	4
	2
	23
	19
	3
	4
	0
	2
	13
	15
	6
	17
	20
	2
	2
	7
	20
	0
	14
	0
	2
	6
	3
	0
	2
	0
	6
	4
	14
	0
	9
	20
	24
	8
	12
	15
	10
	10
	23
	0
	0
	2
	20
	12
	2
	16
	14
	0
	24
	0
	2
	4
	2
	10
	23
	20
	23
	23
	5
	20
	10
	24
	8
	13
	2
	1
	4
	23
	23
	4
	2
	23
	13
	4
	2
	16
	20
	14
	23
	23
	0
	0
	12
	12
	23
	0
	0
	0
	23
	12
	6
	19
	0
	0
	23
	12
	2
	14
	17
	16
	23
	16
	12
	23
	16
	16
	14
	12
	12
	8
	8
	13
	12
	12
	8
	12
	8
	13
	6
	24
	15
	13
	9
	0
	6
	13
	17
	15
	22
	10
	6
	12
	20
	6
	2
	2
	20
	17
	12
	14
	0
	23
	0
	2
	2
	3
	6
	0
	2
	2
	0
	0
	4
	11
	10
	0
	23
	0
	2
	14
	23
	8
	4
	10
	2
	2
	4
	23
	13
	4
	2
	23
	20
	23
	16
	23
	4
	12
	0
	12
	21
	13
	2
	4
	12
	12
	12
	2
	4
	0
	14
	0
	0
	21
	10
	20
	14
	17
	8
	4
	2
	22
	4
	13
	0
	10
	4
	0
	23
	4
	14
	0
	0
	2
	0
	2
	4
	19
	6
	15
	12
	5
	4
	24
	22
	20
	8
	17
	10
	14
	6
	0
	16
	14
	15
